p tw 42 45
1 2
2 3
11 12
12 13
13 14
14 15
15 16
16 17
17 18
18 19
18 22
19 20
20 21
3 4
22 23
23 24
24 25
24 29
25 26
26 27
27 28
28 41
29 30
30 31
30 35
4 5
31 32
32 33
33 34
34 41
35 36
36 37
37 38
38 39
39 40
40 41
5 6
41 42
6 7
7 8
8 21
8 9
9 10
10 11
10 22
